AES/1_5_4/ssaes_r1-20_c5_rw1_e4_f0_k1-20_aes_canon_box_aes_mc_bidirectional/ExperimentMinisat_r17_k9cnf_2011-10-29-162425/Result
WARNING: for repeatability, setting FPU to use double precision
============================[ Problem Statistics ]=============================
|                                                                             |
|  Number of variables:          3188                                         |
|  Number of clauses:           18950                                         |
|  Parse time:                   0.01 s                                       |
|  Eliminated clauses:           0.03 Mb                                      |
|  Simplification time:          0.02 s                                       |
|                                                                             |
=============================[ Search Statistics ]==============================
| Conflicts  |          ORIGINAL         |          LEARNT          | Progress |
|            |    Vars  Clauses Literals |    Limit  Clauses Lit/Cl |          |
================================================================================
|        100 |    2618    17266    53594 |     6330      100     19 |  3.388 % |
|        250 |    2618    17266    53594 |     6963      250     28 |  3.388 % |
|        475 |    2618    17266    53594 |     7660      475     36 |  3.388 % |
|        812 |    2618    17266    53594 |     8426      812     41 |  3.388 % |
|       1318 |    2618    17266    53594 |     9269     1318     40 |  3.388 % |
|       2077 |    2618    17266    53594 |    10195     2077     40 |  3.388 % |
|       3216 |    2618    17266    53594 |    11215     3216     40 |  3.388 % |
|       4924 |    2618    17266    53594 |    12337     4924     38 |  3.388 % |
|       7486 |    2618    17266    53594 |    13570     7486     37 |  3.388 % |
|      11330 |    2618    17266    53594 |    14927    11330     36 |  3.388 % |
|      17096 |    2618    17266    53594 |    16420     9519     31 |  3.388 % |
|      25745 |    2618    17266    53594 |    18062     9870     29 |  3.388 % |
|      38719 |    2618    17266    53594 |    19868    13697     29 |  3.388 % |
|      58180 |    2618    17266    53594 |    21855    13110     27 |  3.388 % |
|      87372 |    2618    17266    53594 |    24041    20228     25 |  3.388 % |
|     131161 |    2618    17266    53594 |    26445    15523     24 |  3.388 % |
|     196845 |    2618    17266    53594 |    29090    14526     23 |  3.388 % |
|     295371 |    2618    17266    53594 |    31999    25062     24 |  3.388 % |
|     443160 |    2618    17266    53594 |    35199    27910     25 |  3.388 % |
|     664843 |    2618    17266    53594 |    38719    29448     24 |  3.388 % |
|     997368 |    2618    17266    53594 |    42590    24700     22 |  3.388 % |
|    1496156 |    2618    17266    53594 |    46849    42166     25 |  3.388 % |
|    2244338 |    2618    17266    53594 |    51534    28179     23 |  3.388 % |
|    3366612 |    2618    17266    53594 |    56688    45293     25 |  3.388 % |
|    5050023 |    2618    17266    53594 |    62357    22198     20 |  3.388 % |
===============================================================================
restarts              : 11260
conflicts             : 6919489        (3830 /sec)
decisions             : 7527620        (0.00 % random) (4166 /sec)
propagations          : 9370931031     (5186435 /sec)
conflict literals     : 180555243      (73.02 % deleted)
Memory used           : 33.00 MB
CPU time              : 1806.82 s

SATISFIABLE
